NAME: tsp20_30
COMMENT: 20-tsp problem (Padberg/Rinaldi)
TYPE: TSP
DIMENSION: 20
EDGE_WEIGHT_TYPE : EUC_2D
NODE_COORD_SECTION
1 35 5
2 38 20
3 30 8
4 23 24
5 12 5
6 12 28
7 10 36
8 40 28
9 28 16
10 5 2
11 28 25
12 7 10
13 35 23
14 13 14
15 24 39
16 26 8
17 14 34
18 1 34
19 11 15
20 30 24
